(set-logic LIA)
(synth-fun next ((brake Int) (distance Int) (speed Int) (throttle Int) (ignition Bool) (time Int) ) Int
	((Start Int) (Var Int) (StartBool Bool))
	((Start Int (
				 3
				 4
				 6
				 (ite StartBool Start Start)))

	(Var Int (
			 0
			 1
			 2
			 6
			 889
			 953
			 brake
			 distance
			 speed
			 throttle
			 time
			 (+ Var Var)						
			 (- Var Var)						
			 (* Var Var)))

	(StartBool Bool (
				 	 ignition
					(= Var Var)						
					(>= Var Var)						
					(<= Var Var)						
					(and StartBool StartBool)			
					(or  StartBool StartBool)				
					(not StartBool)))))

(constraint (= (next 0 0 4 0 true 27 ) 4))
(constraint (= (next 0 0 4 0 true 129 ) 6))
(constraint (= (next 0 0 8 0 true 1488 ) 6))
(constraint (= (next 0 1 7 0 true 1912 ) 3))

(check-synth)
